288
2767
2668
2354
1652
1104
1731
3839
1329
736
1122
763
210
3868
3513
874
756
251
960
2262
2651
754
2551
869
3279
2210
389
2625
2042
1956
1668
3476
3217
1289
2837
3477
1792
2193
2359
3987
467
655
381
2135
213
1961
1618
3777
3349
2715
2997
785
168
2940
4138
1783
896
375
3110
4087
783
1850
3957
501
1121
2511
2753
1332
1405
1891
3103
1837
2130
2263
3285
2283
1427
2460
3827
1981
600
3349
1369
3082
3551
2675
826
896
2459
3438
170
2299
1482
564
2050
941
902
1638
1857
2464
